QPLIB_3279
LGQ
minimize
307 # number of variables
164 # number of constraints
0.0 # default value for linear coefficients in objective
5 # number of non-default linear coefficients in objective
1 8000.0
2 8000.0
3 53.6
14 1680.0
15 1260.0
0.0 # objective constant
78 # number of quadratic terms in all constraints
149 1 1 2.0
149 1 1 2.0
149 1 1 2.0
149 1 1 2.0
149 1 1 2.0
150 1 1 2.0
150 1 1 2.0
150 1 1 2.0
150 1 1 2.0
150 1 1 2.0
151 1 1 2.0
151 1 1 2.0
151 1 1 2.0
151 1 1 2.0
151 1 1 2.0
152 1027 1 2.0
152 1027 1 2.0
152 1027 1 2.0
152 1027 1 2.0
152 1027 1 2.0
153 27587073 1 2.0
153 27587073 1 2.0
153 27587073 1 2.0
153 27587073 1 2.0
153 27587073 1 2.0
154 1 1 2.0
154 1 1 2.0
154 1 1 2.0
154 1 1 2.0
154 1 1 2.0
155 34 1 2.0
155 34 1 2.0
155 34 1 2.0
155 34 1 2.0
155 34 1 -2.0
156 10 1 2.0
156 10 1 2.0
156 10 1 2.0
156 10 1 2.0
156 10 1 -2.0
157 1818576901 1 -2.0
157 1818576901 1 2.0
157 1818576901 1 2.0
157 1818576901 1 2.0
157 1818576901 1 2.0
157 1818576901 1 2.0
158 32625 1 2.0
158 32625 1 2.0
158 32625 1 2.0
158 32625 1 2.0
158 32625 1 -2.0
159 1654614905 1 2.0
159 1654614905 1 2.0
159 1654614905 1 2.0
159 1654614905 1 2.0
159 1654614905 1 -2.0
160 32734 1027 -2.0
160 32734 1027 2.0
160 32734 1027 2.0
160 32734 1027 2.0
160 32734 1027 2.0
160 32734 1027 2.0
161 27587073 33 -2.0
161 27587073 33 -1.9
162 1 1 -2.0
162 1 1 -1.8
163 50 34 2.0
163 50 34 2.0
163 50 34 2.0
163 50 34 2.0
163 50 34 2.0
163 50 34 2.0
164 1 1 2.0
164 1 1 2.0
164 1 1 2.0
164 1 1 2.0
164 1 1 2.0
164 1 1 2.0
458 # number of linear terms in all constraints
1 16 1.0
1 17 1.0
1 18 1.0
1 19 1.0
2 20 1.0
2 21 1.0
2 22 1.0
2 23 1.0
3 24 -1.0
3 25 1.0
3 26 1.0
4 27 -1.0
4 28 1.0
4 29 1.0
5 30 -1.0
5 31 1.0
5 32 1.0
6 33 -1.0
6 34 1.0
6 35 1.0
7 36 -1.0
7 37 1.0
7 38 1.0
8 39 -1.0
8 40 1.0
8 41 1.0
9 42 -1.0
9 43 1.0
9 44 1.0
10 45 -1.0
10 46 1.0
10 47 1.0
11 48 -1.0
11 49 1.0
11 50 1.0
12 51 -1.0
12 52 1.0
12 53 1.0
13 54 -1.0
13 55 1.0
13 56 1.0
14 57 -1.0
14 58 1.0
14 59 1.0
15 60 -1.0
15 61 1.0
15 62 1.0
16 63 -1.0
16 64 1.0
16 65 1.0
17 66 -1.0
17 67 1.0
17 68 1.0
18 69 -1.0
18 70 1.0
18 71 1.0
19 72 -1.0
19 73 1.0
19 74 1.0
20 75 -1.0
20 76 1.0
20 77 1.0
21 78 -1.0
21 79 1.0
21 80 1.0
22 81 -1.0
22 82 1.0
22 83 1.0
23 16 -1.0
23 84 1.0
23 85 1.0
24 17 -1.0
24 86 1.0
24 87 1.0
25 18 -1.0
25 88 1.0
25 89 1.0
26 19 -1.0
26 90 1.0
26 91 1.0
27 92 -1.0
27 93 1.0
27 94 1.0
28 95 -1.0
28 96 1.0
28 97 1.0
29 98 -1.0
29 99 1.0
29 100 1.0
30 101 -1.0
30 102 1.0
30 103 1.0
31 104 -1.0
31 105 1.0
31 106 1.0
32 107 -1.0
32 108 1.0
32 109 1.0
33 110 -1.0
33 111 1.0
33 112 1.0
34 113 -1.0
34 114 1.0
34 115 1.0
35 116 -1.0
35 117 1.0
35 118 1.0
36 119 -1.0
36 120 1.0
36 121 1.0
37 122 -1.0
37 123 1.0
37 124 1.0
38 125 -1.0
38 126 1.0
38 127 1.0
39 128 -1.0
39 129 1.0
39 130 1.0
40 131 -1.0
40 132 1.0
40 133 1.0
41 134 -1.0
41 135 1.0
41 136 1.0
42 137 -1.0
42 138 1.0
42 139 1.0
43 140 -1.0
43 141 1.0
43 142 1.0
44 143 -1.0
44 144 1.0
44 145 1.0
45 146 -1.0
45 147 1.0
45 148 1.0
46 149 -1.0
46 150 1.0
46 151 1.0
47 152 -1.0
47 153 1.0
47 154 1.0
48 155 -1.0
48 156 1.0
48 157 1.0
49 158 -1.0
49 159 1.0
49 160 1.0
50 161 -1.0
50 162 1.0
50 163 1.0
51 164 -1.0
51 165 1.0
51 166 1.0
52 167 -1.0
52 168 1.0
52 169 1.0
53 170 -1.0
53 171 1.0
53 172 1.0
54 173 -1.0
54 174 1.0
54 175 1.0
55 20 -1.0
55 176 1.0
55 177 1.0
56 21 -1.0
56 178 1.0
56 179 1.0
57 22 -1.0
57 180 1.0
57 181 1.0
58 23 -1.0
58 182 1.0
58 183 1.0
59 2 1.0
59 85 -55.0
59 86 -55.0
59 87 -110.0
59 88 -110.0
59 89 -165.0
59 90 -165.0
59 91 -220.0
60 3 1.0
60 177 -55.0
60 178 -55.0
60 179 -110.0
60 180 -110.0
60 181 -165.0
60 182 -165.0
60 183 -220.0
61 14 1.0
61 85 -16.52927795
61 86 -16.52927795
61 87 -26.85189125
61 88 -26.85189125
61 89 -35.66471525
61 90 -35.66471525
61 91 -43.62102603
61 184 -43.62102603
62 15 1.0
62 177 -16.52927795
62 178 -16.52927795
62 179 -26.85189125
62 180 -26.85189125
62 181 -35.66471525
62 182 -35.66471525
62 183 -43.62102603
62 185 -43.62102603
63 186 1.0
63 187 1.0
63 188 1.0
63 189 1.0
63 190 1.0
63 191 1.0
64 192 1.0
64 193 1.0
64 194 1.0
64 195 1.0
64 196 1.0
64 197 1.0
65 198 1.0
65 199 1.0
65 200 1.0
65 201 1.0
65 202 1.0
65 203 1.0
66 204 1.0
66 205 1.0
66 206 1.0
66 207 1.0
66 208 1.0
66 209 1.0
67 210 1.0
67 211 1.0
67 212 1.0
67 213 1.0
67 214 1.0
67 215 -1.0
68 216 1.0
68 217 1.0
68 218 1.0
68 219 1.0
68 220 1.0
68 221 -1.0
69 1 -1.0
69 222 1.0
69 223 1.0
69 224 1.0
69 225 1.0
69 226 1.0
69 227 1.0
70 193 1.0
70 199 1.0
70 205 1.0
70 210 1.0
70 216 1.0
70 222 1.0
71 187 1.0
71 200 1.0
71 206 1.0
71 211 1.0
71 217 1.0
71 223 1.0
72 188 1.0
72 194 1.0
72 207 1.0
72 212 1.0
72 218 1.0
72 224 1.0
73 189 1.0
73 195 1.0
73 201 1.0
73 213 1.0
73 219 1.0
73 225 1.0
74 2 -1.0
74 190 1.0
74 196 1.0
74 202 1.0
74 208 1.0
74 220 1.0
74 226 1.0
75 3 -1.0
75 191 1.0
75 197 1.0
75 203 1.0
75 209 1.0
75 214 1.0
75 227 1.0
76 228 1.0
76 229 -1.0
77 229 -1.0
77 230 1.0
78 229 -1.0
78 231 1.0
79 229 -1.0
79 232 1.0
80 229 -1.0
80 233 1.0
81 229 -1.0
81 234 1.0
82 235 1.0
82 236 -1.0
83 236 -1.0
83 237 1.0
84 236 -1.0
84 238 1.0
85 236 -1.0
85 239 1.0
86 236 -1.0
86 240 1.0
87 236 -1.0
87 241 1.0
88 242 1.0
88 243 -1.0
89 243 -1.0
89 244 1.0
90 243 -1.0
90 245 1.0
91 243 -1.0
91 246 1.0
92 243 -1.0
92 247 1.0
93 243 -1.0
93 248 1.0
94 249 1.0
94 250 -1.0
95 250 -1.0
95 251 1.0
96 250 -1.0
96 252 1.0
97 250 -1.0
97 253 1.0
98 250 -1.0
98 254 1.0
99 250 -1.0
99 255 1.0
100 256 1.0
100 257 -1.0
101 257 -1.0
101 258 1.0
102 257 -1.0
102 259 1.0
103 257 -1.0
103 260 1.0
104 257 -1.0
104 261 1.0
105 257 -1.0
105 262 1.0
106 263 1.0
106 264 -1.0
107 264 -1.0
107 265 1.0
108 264 -1.0
108 266 1.0
109 264 -1.0
109 267 1.0
110 264 -1.0
110 268 1.0
111 264 -1.0
111 269 1.0
112 270 1.0
112 271 -1.0
113 271 -1.0
113 272 1.0
114 271 -1.0
114 273 1.0
115 271 -1.0
115 274 1.0
116 271 -1.0
116 275 1.0
117 271 -1.0
117 276 1.0
118 277 1.0
118 278 -1.0
119 278 -1.0
119 279 1.0
120 278 -1.0
120 280 1.0
121 278 -1.0
121 281 1.0
122 278 -1.0
122 282 1.0
123 278 -1.0
123 283 1.0
124 284 1.0
124 285 -1.0
125 285 -1.0
125 286 1.0
126 285 -1.0
126 287 1.0
127 285 -1.0
127 288 1.0
128 285 -1.0
128 289 1.0
129 285 -1.0
129 290 1.0
130 291 1.0
130 292 -1.0
131 292 -1.0
131 293 1.0
132 292 -1.0
132 294 1.0
133 292 -1.0
133 295 1.0
134 292 -1.0
134 296 1.0
135 292 -1.0
135 297 1.0
136 1 -1.0
136 186 1.0
136 192 1.0
136 198 1.0
136 204 1.0
137 229 50.0
137 298 -50.0
138 236 60.0
138 299 -60.0
139 243 70.0
139 300 -70.0
140 264 50.0
140 301 -50.0
141 271 60.0
141 302 -60.0
142 278 70.0
142 303 -70.0
143 2 1.0
143 215 -1.0
144 3 1.0
144 221 -1.0
145 250 1.0
145 304 -0.05
146 257 1.0
146 305 -1.0
147 285 1.0
147 306 -1.0
148 292 1.0
148 307 -0.1
149 193 25.0
149 298 -50.0
150 199 25.0
150 299 -60.0
151 205 25.0
151 300 -70.0
152 193 37.5
152 301 -50.0
153 199 37.5
153 302 -60.0
154 205 37.5
154 303 -70.0
155 210 25.0
156 216 25.0
157 222 25.0
158 210 37.5
159 216 37.5
160 222 37.5
1.79769313486232E+308 # value for infinity
0.0 # default left-hand-side value
18 # number of non-default left-hand-sides
1 1.0
2 1.0
63 40.0
64 50.0
65 60.0
66 70.0
70 40.0
71 50.0
72 60.0
73 70.0
137 1000.0
138 1000.0
139 2000.0
140 1000.0
141 1000.0
142 2000.0
161 -5000.0
162 -5500.0
0.0 # default right-hand-side value
20 # number of non-default right-hand-sides
1 1.0
2 1.0
61 1.79769313486232E+308
62 1.79769313486232E+308
63 40.0
64 50.0
65 60.0
66 70.0
70 40.0
71 50.0
72 60.0
73 70.0
137 1000.0
138 1000.0
139 2000.0
140 1000.0
141 1000.0
142 2000.0
161 -5000.0
162 -5500.0
0.0 # default variable lower bound value
0 # number of non-default variable lower bounds
1.0 # default variable upper bound value
137 # number of non-default variable upper bounds
1 220.0
2 220.0
3 220.0
4 78.57142857
5 78.57142857
6 78.57142857
7 78.57142857
8 78.57142857
9 78.57142857
10 78.57142857
11 78.57142857
12 10.0
13 10.0
14 43.62102603
15 43.62102603
186 220.0
187 220.0
188 220.0
189 220.0
190 220.0
191 220.0
192 220.0
193 220.0
194 220.0
195 220.0
196 220.0
197 220.0
198 220.0
199 220.0
200 220.0
201 220.0
202 220.0
203 220.0
204 220.0
205 220.0
206 220.0
207 220.0
208 220.0
209 220.0
210 220.0
211 220.0
212 220.0
213 220.0
214 220.0
215 220.0
216 220.0
217 220.0
218 220.0
219 220.0
220 220.0
221 220.0
222 220.0
223 220.0
224 220.0
225 220.0
226 220.0
227 220.0
228 78.57142857
229 70.0
230 78.57142857
231 78.57142857
232 78.57142857
233 78.57142857
234 78.57142857
235 78.57142857
236 66.66666667
237 78.57142857
238 78.57142857
239 78.57142857
240 78.57142857
241 78.57142857
242 78.57142857
243 78.57142857
244 78.57142857
245 78.57142857
246 78.57142857
247 78.57142857
248 78.57142857
249 78.57142857
250 3.928571429
251 78.57142857
252 78.57142857
253 78.57142857
254 78.57142857
255 78.57142857
256 78.57142857
257 78.57142857
258 78.57142857
259 78.57142857
260 78.57142857
261 78.57142857
262 78.57142857
263 78.57142857
264 70.0
265 78.57142857
266 78.57142857
267 78.57142857
268 78.57142857
269 78.57142857
270 78.57142857
271 66.66666667
272 78.57142857
273 78.57142857
274 78.57142857
275 78.57142857
276 78.57142857
277 78.57142857
278 78.57142857
279 78.57142857
280 78.57142857
281 78.57142857
282 78.57142857
283 78.57142857
284 78.57142857
285 78.57142857
286 78.57142857
287 78.57142857
288 78.57142857
289 78.57142857
290 78.57142857
291 78.57142857
292 7.857142857
293 78.57142857
294 78.57142857
295 78.57142857
296 78.57142857
297 78.57142857
298 50.0
299 50.0
300 50.0
301 50.0
302 50.0
303 50.0
304 78.57142857
305 78.57142857
306 78.57142857
307 78.57142857
0 # default variable type
56 # number of non-default variable types
16 1
17 1
18 1
19 1
20 1
21 1
22 1
23 1
24 1
27 1
30 1
33 1
36 1
39 1
42 1
45 1
48 1
51 1
54 1
57 1
60 1
63 1
66 1
69 1
72 1
75 1
78 1
81 1
92 1
95 1
98 1
101 1
104 1
107 1
110 1
113 1
116 1
119 1
122 1
125 1
128 1
131 1
134 1
137 1
140 1
143 1
146 1
149 1
152 1
155 1
158 1
161 1
164 1
167 1
170 1
173 1
0.0 # default variable primal value in starting point
0 # number of non-default variable primal values in starting point
0.0 # default constraint dual value in starting point
0 # number of non-default constraint dual values in starting point
0.0 # default variable bound dual value in starting point
0 # number of non-default variable bound dual values in starting point
0 # number of non-default variable names
0 # number of non-default constraint names
